100
128
46
25
57
19
37
26
3
40
64
26
8
8
54
19
50
22
5
27
16
31
38
58
46
22
16
32
27
44
34
15
20
28
31
25
50
22
32
22
40
20
42
25
42
39
52
35
31
43
64
19
22
60
39
29
21
16
42
38
47
34
44
34
16
35
30
31
50
60
32
17
3
24
60
42
30
18
21
19
43
26
58
39
36
24
22
58
26
64
64
52
28
62
16
54
16
58
50
48
46
42